(set-info :smt-lib-version 2.6)
(set-logic QF_UFLRA)
(set-info :source |
MathSat group

|)
(set-info :category "random")
(set-info :status sat)
(declare-fun x0 () Real)
(declare-fun x1 () Real)
(declare-fun x2 () Real)
(declare-fun x3 () Real)
(declare-fun x4 () Real)
(declare-fun x5 () Real)
(declare-fun x6 () Real)
(declare-fun x7 () Real)
(declare-fun x8 () Real)
(declare-fun x9 () Real)
(declare-fun x10 () Real)
(declare-fun x11 () Real)
(declare-fun x12 () Real)
(declare-fun x13 () Real)
(declare-fun x14 () Real)
(declare-fun x15 () Real)
(declare-fun x16 () Real)
(declare-fun x17 () Real)
(declare-fun x18 () Real)
(declare-fun x19 () Real)
(declare-fun x20 () Real)
(declare-fun x21 () Real)
(declare-fun x22 () Real)
(declare-fun x23 () Real)
(declare-fun x24 () Real)
(declare-fun x25 () Real)
(declare-fun x26 () Real)
(declare-fun x27 () Real)
(declare-fun x28 () Real)
(declare-fun x29 () Real)
(declare-fun f0_1 (Real) Real)
(declare-fun f0_2 (Real Real) Real)
(declare-fun f0_3 (Real Real Real) Real)
(declare-fun f0_4 (Real Real Real Real) Real)
(declare-fun P0 () Bool)
(declare-fun P1 () Bool)
(declare-fun P2 () Bool)
(declare-fun P3 () Bool)
(declare-fun P4 () Bool)
(declare-fun P5 () Bool)
(declare-fun P6 () Bool)
(declare-fun P7 () Bool)
(declare-fun P8 () Bool)
(declare-fun P9 () Bool)
(declare-fun P10 () Bool)
(declare-fun P11 () Bool)
(declare-fun P12 () Bool)
(declare-fun P13 () Bool)
(declare-fun P14 () Bool)
(declare-fun P15 () Bool)
(declare-fun P16 () Bool)
(declare-fun P17 () Bool)
(declare-fun P18 () Bool)
(declare-fun P19 () Bool)
(declare-fun P20 () Bool)
(declare-fun P21 () Bool)
(declare-fun P22 () Bool)
(declare-fun P23 () Bool)
(declare-fun P24 () Bool)
(declare-fun P25 () Bool)
(declare-fun P26 () Bool)
(declare-fun P27 () Bool)
(declare-fun P28 () Bool)
(declare-fun P29 () Bool)
(assert (let ((?v_11 (* 21 x22)) (?v_35 (distinct (- (- (* 23 x1) (* 18 x6)) (* 32 x21)) 30)) (?v_0 (distinct (+ (- (* 25 x6) (* 31 x27)) (* 17 x26)) 34)) (?v_12 (* 11 x26))) (let ((?v_7 (< (- (- (* 33 x20) ?v_12) (* 8 x10)) 30)) (?v_62 (distinct (- (+ ?v_11 (* 6 x28)) ?v_12) 39)) (?v_77 (= (f0_2 x18 x14) (f0_2 x17 x6))) (?v_56 (distinct (f0_2 x15 x16) x21)) (?v_4 (f0_1 x3))) (let ((?v_79 (= (f0_2 x1 x22) ?v_4)) (?v_14 (distinct x6 (f0_2 x18 x3))) (?v_25 (distinct (f0_1 x6) (f0_2 x5 x15))) (?v_65 (distinct (f0_2 x8 x1) (f0_2 x28 x18))) (?v_71 (distinct x14 x22)) (?v_27 (= ?v_4 x16)) (?v_78 (distinct x6 (f0_2 x21 x17))) (?v_34 (= (f0_1 x10) (f0_2 x2 x1))) (?v_39 (distinct (f0_2 x17 x22) (f0_2 x26 x22))) (?v_66 (distinct x0 (f0_2 x29 x19))) (?v_83 (distinct (f0_2 x29 x25) (f0_2 x16 x8))) (?v_69 (f0_1 x18))) (let ((?v_63 (= ?v_69 x20)) (?v_13 (= x21 (f0_2 x24 x0))) (?v_20 (= (f0_2 x13 x25) (f0_2 x9 x1))) (?v_8 (f0_1 x15))) (let ((?v_53 (= ?v_8 (f0_1 x14))) (?v_18 (= x13 ?v_8)) (?v_92 (= ?v_69 (f0_1 x24))) (?v_6 (= (f0_2 x20 x28) (f0_2 x12 x1))) (?v_67 (= (f0_2 x4 x16) (f0_2 x2 x8))) (?v_1 (distinct (f0_2 x22 x10) x29)) (?v_131 (= (f0_2 x20 x12) (f0_1 x8))) (?v_23 (= (f0_2 x9 x6) x14)) (?v_43 (distinct x21 x7)) (?v_24 (distinct (f0_2 x6 x12) (f0_1 x17))) (?v_17 (= (f0_1 x29) (f0_1 x28))) (?v_21 (distinct x12 (f0_2 x0 x15))) (?v_99 (distinct (f0_2 x2 x18) (f0_2 x16 x24))) (?v_136 (distinct (f0_2 x0 x5) (f0_2 x12 x2))) (?v_5 (not P29)) (?v_125 (or P22 P23)) (?v_119 (not ?v_0))) (let ((?v_37 (not ?v_67)) (?v_68 (not ?v_78)) (?v_96 (not P28)) (?v_59 (not P8)) (?v_2 (not ?v_1)) (?v_112 (not ?v_66)) (?v_22 (not ?v_20)) (?v_51 (not P15)) (?v_45 (not P20)) (?v_128 (not ?v_13)) (?v_116 (not ?v_21)) (?v_42 (not ?v_24)) (?v_114 (not ?v_7)) (?v_48 (not ?v_63)) (?v_130 (not ?v_25)) (?v_86 (not P16)) (?v_85 (not ?v_34)) (?v_70 (not P21)) (?v_46 (not P19)) (?v_88 (not ?v_43)) (?v_52 (not ?v_35)) (?v_61 (not P9)) (?v_73 (not ?v_18)) (?v_54 (not P7)) (?v_64 (not P23)) (?v_87 (not P25)) (?v_102 (not ?v_56)) (?v_49 (not P17)) (?v_108 (not ?v_53)) (?v_60 (not P10)) (?v_127 (not P26)) (?v_101 (not P4)) (?v_84 (not P5)) (?v_75 (not P0)) (?v_117 (not ?v_17)) (?v_141 (not ?v_6)) (?v_121 (not ?v_62)) (?v_148 (not ?v_83)) (?v_82 (not P1)) (?v_137 (not P6)) (?v_100 (not P2)) (?v_81 (not ?v_77)) (?v_120 (not P3)) (?v_94 (not P13)) (?v_110 (not ?v_99)) (?v_122 (not P27)) (?v_129 (not P12)) (?v_135 (not ?v_71)) (?v_134 (not ?v_79)) (?v_143 (not ?v_39)) (?v_140 (not ?v_92)) (?v_139 (not P22)) (?v_147 (not ?v_27)) (?v_138 (not ?v_23)) (?v_142 (not ?v_136)) (?v_151 (not ?v_14)) (?v_144 (not P18)) (?v_146 (not P24)) (?v_150 (not ?v_131)) (?v_153 (not ?v_65)) (?v_16 (< (+ (* 14 x12) (* 36 x20) (* 4 x18)) 12)) (?v_47 (<= (- (- 0 (* 41 x1)) (* 5 x19)) 11)) (?v_29 (< (- (- 0 (* 31 x20)) (* 37 x14)) 2)) (?v_30 (= (- (* 41 x5) (* 15 x2)) 44))) (let ((?v_10 (not ?v_30)) (?v_55 (not ?v_16)) (?v_28 (< (+ (* 18 x19) (* 22 x12)) 18))) (let ((?v_40 (not ?v_28)) (?v_76 (not ?v_29)) (?v_111 (not ?v_47)) (?v_113 (<= (+ (* 20 x18) (* 33 x14) (* 7 x8)) 26))) (let ((?v_124 (not ?v_113)) (?v_149 (or ?v_10 ?v_135)) (?v_3 (< (+ (- (* (- 11) x12) (* 20 x1)) (* 37 x12)) (- 1))) (?v_41 (< (+ (- (* (- 15) x6) 0) (* 20 x6)) 39)) (?v_89 (distinct (+ (* (- 23) x23) (* 34 x3) (* 33 x26)) 12)) (?v_50 (distinct (- (- (* 31 x4) (* 26 x21)) (* 36 x15)) (- 19)))) (let ((?v_58 (not ?v_3)) (?v_9 (<= (- (- ?v_11 (* 39 x8)) (* 35 x18)) (- 23))) (?v_32 (<= (+ (* (- 31) x7) (* 38 x4)) 11)) (?v_90 (< (- (+ (* 39 x13) (* 40 x6)) (* 39 x23)) (- 5)))) (let ((?v_15 (not ?v_90)) (?v_97 (<= (- (+ (* (- 7) x26) (* 39 x6)) (* 21 x11)) 21))) (let ((?v_19 (not ?v_97))) (let ((?v_152 (or ?v_19 ?v_112)) (?v_38 (< (- (+ (* (- 36) x28) (* 18 x25)) (* 35 x15)) 23)) (?v_31 (<= (+ x17 (* 31 x6) (* 16 x6)) (- 32))) (?v_33 (<= (+ (* (- 6) x29) (* 14 x11) (* 7 x28)) 14)) (?v_93 (not ?v_9)) (?v_132 (<= (- (- (* 7 x19) (* 6 x29)) (* 19 x25)) (- 13)))) (let ((?v_123 (not ?v_132)) (?v_26 (distinct (+ (- (* (- 17) x25) (* 32 x12)) (* 41 x21)) (- 15))) (?v_107 (<= (- (+ (* (- 27) x8) (* 19 x6)) (* 26 x4)) (- 36)))) (let ((?v_105 (not ?v_107)) (?v_91 (< (+ (* (- 17) x7) (* 32 x24) (* 18 x24)) 6))) (let ((?v_118 (not ?v_91)) (?v_44 (< (+ (* (- 24) x23) (* 33 x24) (* 3 x20)) 8))) (let ((?v_36 (not ?v_44)) (?v_98 (not ?v_33)) (?v_72 (< (+ (- (* (- 15) x0) (* 37 x15)) (* 22 x27)) 24)) (?v_106 (<= (- (- (* (- 36) x15) (* 9 x5)) (* 15 x14)) (- 19)))) (let ((?v_57 (not ?v_106)) (?v_109 (< (- (+ (* (- 19) x19) (* 12 x19)) (* 34 x22)) 44))) (let ((?v_74 (not ?v_109)) (?v_80 (not ?v_38)) (?v_115 (< (+ (- (* 10 x5) (* 7 x29)) (* 41 x20)) (- 39)))) (let ((?v_103 (not ?v_115)) (?v_133 (not ?v_26)) (?v_126 (not ?v_72)) (?v_104 (not ?v_31)) (?v_95 (not ?v_89)) (?v_145 (not ?v_41))) (and (and (and (and (and (and (and (and (and (and (and (and (and (and (and (and (and (and (and (and (and (and (and (and (and (and (and (and (and (and (and (and (and (and (and (and (and (and (and (and (and (and (and (and (and (and (and (and (and (and (and (and (and (and (and (and (and (and (and (and (and (and (and (and (and (and (and (and (and (and (and (and (and (and (and (and (and (and (and (and (and (and (and (and (and (and (and (and (and (and (and (and (and (and (and (and (and (and (and (and (and (and (and (and (and (and (and (and (and (and (and (and (and (and (and (and (and (and (and (and (and (and (and (and (and (and (and (and (and (and (and (and (and (and (and (and (and (and (and (and (and (and (and (and (and (and (and (and (and (and (and (and (and (and (and (and (and (and (and (and (and (and (and (and (and (and (and (and (and (and (and (and (and (and (and (and (and (and (and (and (and (and (and (and (and (and (and (and (and (and (and (and (and (and (and (and (and (and (and (and (and (and (and (and (and (and (and (and (and (and (and (and (and (and (and (and (and (and (and (and (and (and (and (and (and (and (and (and (and (and (and (and (and (and (and (and (and (and (and (and (and (and (and (and (and (and (and (and (and (and (and (and (and (and (and (and (and (and (and (and (and (and (and (and (and (and (and (and (and (and (and (and (and (and (and (and (and (and (and (and (and (and (and (and (and (and (and (and (and (and (and (and (and (and (and (and (and (and (and (and (and (and (and (and (and (and (and (and (and (and (and (and (and (and (and (and (and (and (and (and (and (and (and (and (and (and (and (and (and (and (and (and (and (and (and (and (and (and (and (and (and (and (and (and (and (and (and (and (and (and (and (and (and (and (and (and (and (and (and (or (or ?v_5 ?v_0) ?v_13) (or ?v_125 ?v_16)) (or (or ?v_119 ?v_79) ?v_37)) (or (or ?v_3 P5) ?v_47)) (or (or ?v_1 ?v_41) ?v_68)) (or (or ?v_24 P9) ?v_89)) (or (or ?v_14 ?v_29) ?v_96)) (or (or P12 ?v_6) ?v_50)) (or (or ?v_65 ?v_59) ?v_2)) (or (or ?v_39 ?v_2) ?v_58)) (or (or ?v_9 (not ?v_32)) P13)) (or (or ?v_53 ?v_10) P15)) (or (or ?v_27 ?v_5) ?v_1)) (or (or ?v_17 P22) ?v_15)) (or ?v_152 ?v_7)) (or (or ?v_22 P28) ?v_38)) (or (or P27 ?v_6) ?v_35)) (or (or ?v_131 ?v_51) ?v_0)) (or (or P8 ?v_21) ?v_7)) (or (or ?v_18 ?v_31) ?v_33)) (or (or ?v_93 ?v_10) ?v_62)) (or (or ?v_25 ?v_13) ?v_123)) (or (or ?v_14 ?v_26) ?v_15)) (or (or ?v_5 ?v_55) ?v_45)) (or (or ?v_17 ?v_128) ?v_18)) (or (or ?v_19 ?v_20) ?v_40)) (or (or ?v_116 ?v_17) ?v_23)) (or (or ?v_22 ?v_23) P19)) (or (or ?v_77 ?v_42) ?v_114)) (or (or ?v_48 P21) P9)) (or (or ?v_25 ?v_26) ?v_105)) (or (or ?v_27 ?v_130) ?v_28)) (or (or P9 ?v_118) ?v_86)) (or (or ?v_76 ?v_30) ?v_26)) (or (or ?v_85 ?v_70) P4)) (or (or ?v_10 ?v_46) P28)) (or (or ?v_31 ?v_10) ?v_36)) (or (or ?v_32 P9) P14)) (or (or ?v_88 ?v_98) ?v_34)) (or (or ?v_52 ?v_36) ?v_37)) (or (or ?v_61 ?v_73) ?v_38)) (or (or ?v_54 ?v_64) ?v_87)) (or (or ?v_13 ?v_23) ?v_39)) (or (or ?v_40 ?v_41) ?v_42)) (or (or ?v_14 ?v_43) ?v_102)) (or (or ?v_31 P29) ?v_44)) (or (or ?v_45 ?v_16) ?v_46)) (or (or ?v_47 ?v_49) ?v_72)) (or (or ?v_37 ?v_48) ?v_49)) (or (or ?v_39 ?v_33) (not P14))) (or (or ?v_50 ?v_17) ?v_9)) (or (or ?v_51 ?v_52) ?v_26)) (or (or ?v_108 ?v_54) ?v_60)) (or (or P6 ?v_127) ?v_55)) (or (or ?v_39 ?v_51) ?v_101)) (or (or ?v_71 ?v_57) ?v_25)) (or (or ?v_56 ?v_74) ?v_84)) (or (or ?v_75 ?v_117) ?v_51)) (or (or ?v_57 P7) ?v_44)) (or (or ?v_58 ?v_59) ?v_111)) (or (or ?v_60 ?v_141) ?v_80)) (or (or P26 ?v_61) ?v_33)) (or (or P0 ?v_51) ?v_1)) (or (or ?v_29 ?v_14) ?v_121)) (or (or ?v_63 ?v_64) ?v_148)) (or (or ?v_18 ?v_9) ?v_65)) (or (or ?v_103 ?v_66) ?v_25)) (or (or ?v_133 ?v_67) ?v_68)) (or (or P21 ?v_60) ?v_53)) (or (or ?v_40 ?v_30) ?v_7)) (or (or ?v_82 P23) ?v_92)) (or (or ?v_70 ?v_137) P19)) (or (or ?v_37 ?v_10) P12)) (or (or ?v_10 ?v_71) ?v_58)) (or (or ?v_126 ?v_73) ?v_30)) (or (or ?v_1 ?v_100) ?v_74)) (or (or ?v_75 ?v_76) P12)) (or (or ?v_25 ?v_81) ?v_62)) (or (or ?v_78 ?v_120) ?v_79)) (or (or ?v_56 ?v_80) ?v_81)) (or (or ?v_99 ?v_79) ?v_22)) (or (or ?v_32 ?v_82) ?v_5)) (or (or ?v_136 ?v_83) ?v_38)) (or (or ?v_29 ?v_28) ?v_84)) (or (or ?v_104 ?v_85) ?v_86)) (or (or ?v_87 P3) ?v_49)) (or (or ?v_88 ?v_3) ?v_35)) (or (or ?v_94 ?v_76) ?v_61)) (or (or ?v_95 ?v_30) P29)) (or (or ?v_90 P7) ?v_9)) (or (or ?v_51 ?v_91) ?v_92)) (or (or ?v_93 ?v_1) P23)) (or (or ?v_92 ?v_94) ?v_67)) (or (or ?v_25 ?v_77) ?v_95)) (or (or ?v_96 ?v_57) ?v_87)) (or (or P2 ?v_97) ?v_32)) (or (or ?v_93 ?v_98) ?v_110)) (or (or P9 P2) ?v_98)) (or (or ?v_55 P8) ?v_13)) (or (or P19 P7) P29)) (or (or P15 P12) ?v_68)) (or (or ?v_80 ?v_20) ?v_47)) (or (or ?v_50 ?v_76) ?v_92)) (or (or P9 ?v_124) ?v_49)) (or (or ?v_100 ?v_101) ?v_3)) (or (or ?v_50 ?v_145) ?v_94)) (or (or ?v_122 ?v_3) ?v_102)) (or (or ?v_32 ?v_60) ?v_14)) (or (or ?v_9 ?v_94) ?v_103)) (or (or ?v_59 ?v_104) ?v_99)) (or (or ?v_49 ?v_105) ?v_106)) (or (or P20 ?v_102) ?v_50)) (or (or P16 ?v_65) ?v_107)) (or (or P14 ?v_64) ?v_108)) (or (or ?v_109 ?v_97) ?v_96)) (or (or ?v_40 ?v_68) ?v_108)) (or (or P14 ?v_110) ?v_19)) (or (or ?v_111 P27) P7)) (or (or ?v_88 ?v_91) ?v_112)) (or (or ?v_36 ?v_83) ?v_78)) (or (or ?v_61 ?v_0) ?v_57)) (or (or ?v_113 ?v_129) P28)) (or (or ?v_86 ?v_68) ?v_66)) (or (or P21 ?v_97) ?v_41)) (or (or ?v_114 ?v_113) ?v_57)) (or (or ?v_55 ?v_25) ?v_115)) (or (or ?v_91 P5) P9)) (or (or ?v_14 ?v_2) ?v_45)) (or (or ?v_116 ?v_92) ?v_47)) (or (or P6 P4) P11)) (or (or ?v_112 ?v_51) ?v_111)) (or (or P10 ?v_20) ?v_135)) (or (or ?v_108 ?v_50) P28)) (or (or ?v_100 ?v_13) P23)) (or (or ?v_30 ?v_117) ?v_6)) (or (or ?v_61 P12) ?v_103)) (or (or ?v_118 ?v_134) ?v_77)) (or (or ?v_66 ?v_56) P13)) (or (or P16 ?v_101) ?v_97)) (or (or ?v_119 P16) ?v_47)) (or (or ?v_6 ?v_120) ?v_82)) (or (or ?v_47 ?v_119) ?v_84)) (or (or ?v_58 ?v_1) ?v_28)) (or (or ?v_116 ?v_91) ?v_72)) (or (or ?v_121 ?v_107) ?v_36)) (or (or ?v_15 P10) ?v_10)) (or (or ?v_68 ?v_29) ?v_67)) (or (or P25 ?v_23) ?v_14)) (or (or (not ?v_50) ?v_30) ?v_63)) (or (or ?v_78 ?v_55) ?v_1)) (or (or ?v_122 ?v_51) ?v_18)) (or (or ?v_37 ?v_143) ?v_73)) (or (or P19 ?v_42) ?v_105)) (or (or ?v_23 ?v_123) ?v_71)) (or (or ?v_119 ?v_95) ?v_117)) (or (or ?v_67 ?v_19) ?v_31)) (or (or ?v_105 ?v_46) ?v_37)) (or (or ?v_123 P13) ?v_140)) (or (or ?v_124 ?v_87) ?v_37)) (or (or P4 P9) ?v_139)) (or (or ?v_34 ?v_24) P5)) (or ?v_125 P8)) (or (or ?v_2 ?v_147) ?v_94)) (or (or ?v_9 ?v_36) ?v_91)) (or (or ?v_126 P16) ?v_51)) (or (or ?v_76 ?v_119) ?v_127)) (or (or ?v_94 ?v_128) ?v_44)) (or (or ?v_129 ?v_94) ?v_84)) (or (or ?v_22 ?v_38) ?v_45)) (or (or ?v_49 ?v_63) ?v_58)) (or (or ?v_36 ?v_88) ?v_78)) (or (or P0 ?v_5) ?v_49)) (or (or ?v_130 ?v_108) ?v_18)) (or (or ?v_92 ?v_76) P0)) (or (or P11 ?v_25) P19)) (or (or ?v_55 ?v_90) ?v_40)) (or (or ?v_53 ?v_42) P9)) (or (or ?v_79 ?v_13) P2)) (or (or ?v_27 ?v_78) ?v_40)) (or (or ?v_89 ?v_73) ?v_127)) (or (or ?v_74 ?v_88) ?v_106)) (or (or ?v_138 ?v_20) ?v_38)) (or (or ?v_115 ?v_38) ?v_131)) (or (or P1 P8) ?v_105)) (or (or ?v_132 ?v_9) ?v_14)) (or (or P25 ?v_80) ?v_90)) (or (or ?v_114 ?v_53) ?v_6)) (or (or P8 ?v_72) ?v_115)) (or (or P21 ?v_13) ?v_132)) (or (or ?v_101 ?v_70) ?v_35)) (or (or ?v_45 P18) P29)) (or (or ?v_83 ?v_117) ?v_89)) (or (or ?v_55 ?v_114) ?v_38)) (or (or ?v_36 ?v_95) ?v_30)) (or (or P3 ?v_132) ?v_133)) (or (or ?v_81 P5) ?v_1)) (or (or ?v_15 P12) ?v_134)) (or (or ?v_135 ?v_33) ?v_15)) (or (or ?v_132 ?v_50) P20)) (or (or ?v_142 ?v_10) ?v_41)) (or (or ?v_59 ?v_88) ?v_103)) (or (or ?v_120 ?v_28) ?v_81)) (or (or P3 ?v_106) ?v_60)) (or (or ?v_121 P17) ?v_137)) (or (or ?v_138 ?v_105) ?v_83)) (or (or ?v_93 ?v_85) ?v_71)) (or (or ?v_58 ?v_87) P1)) (or (or ?v_6 ?v_130) ?v_92)) (or (or ?v_87 ?v_139) ?v_51)) (or (or P24 ?v_102) ?v_67)) (or (or ?v_46 ?v_114) ?v_81)) (or (or ?v_52 ?v_26) ?v_50)) (or (or P28 ?v_63) ?v_122)) (or (or ?v_107 ?v_45) ?v_48)) (or (or P24 ?v_22) ?v_140)) (or ?v_149 ?v_28)) (or (or ?v_75 ?v_16) P25)) (or (or ?v_32 P20) ?v_138)) (or (or P27 ?v_26) ?v_90)) (or (or ?v_129 ?v_118) ?v_141)) (or (or ?v_83 ?v_79) P6)) (or (or ?v_0 ?v_110) ?v_31)) (or (or ?v_20 ?v_151) ?v_139)) (or (or ?v_45 ?v_46) ?v_70)) (or (or ?v_141 ?v_137) ?v_34)) (or (or ?v_117 ?v_142) ?v_48)) (or (or ?v_97 ?v_42) ?v_62)) (or (or ?v_28 ?v_16) ?v_123)) (or (or P28 ?v_91) ?v_144)) (or (or P18 ?v_19) ?v_16)) (or (or ?v_141 ?v_139) P26)) (or (or ?v_91 ?v_60) ?v_50)) (or (or ?v_63 ?v_136) P17)) (or (or ?v_99 ?v_59) P26)) (or (or ?v_19 ?v_9) P21)) (or (or P10 ?v_15) ?v_40)) (or (or ?v_105 ?v_3) ?v_22)) (or (or ?v_143 ?v_118) ?v_113)) (or (or ?v_42 ?v_30) P15)) (or (or ?v_2 ?v_29) ?v_130)) (or (or P0 ?v_31) P22)) (or (or ?v_137 ?v_0) ?v_144)) (or (or ?v_24 ?v_87) ?v_139)) (or (or ?v_45 ?v_7) P2)) (or (or P15 ?v_130) P0)) (or (or ?v_39 ?v_123) P28)) (or (or P15 P17) ?v_6)) (or (or ?v_10 P16) ?v_20)) (or (or ?v_102 ?v_109) ?v_113)) (or (or P25 ?v_99) ?v_100)) (or (or ?v_27 ?v_54) ?v_20)) (or (or ?v_96 ?v_100) ?v_38)) (or (or ?v_84 ?v_110) ?v_127)) (or (or ?v_128 P26) ?v_102)) (or (or ?v_146 ?v_92) P29)) (or (or ?v_23 ?v_3) ?v_65)) (or (or ?v_6 P27) ?v_90)) (or (or ?v_121 ?v_91) ?v_145)) (or (or ?v_62 ?v_68) ?v_112)) (or (or ?v_30 ?v_100) ?v_46)) (or (or ?v_31 ?v_18) ?v_102)) (or (or ?v_5 ?v_26) ?v_87)) (or (or ?v_64 ?v_129) ?v_143)) (or (or ?v_100 ?v_52) ?v_108)) (or (or P25 ?v_0) ?v_86)) (or (or ?v_43 ?v_139) ?v_77)) (or (or ?v_38 ?v_111) ?v_75)) (or (or P24 ?v_0) P10)) (or (or ?v_18 ?v_66) ?v_13)) (or (or ?v_137 ?v_5) P28)) (or (or P6 P15) ?v_41)) (or (or ?v_142 ?v_24) P23)) (or (or ?v_146 ?v_68) ?v_118)) (or (or ?v_147 ?v_141) ?v_35)) (or (or ?v_25 ?v_82) ?v_29)) (or (or ?v_131 ?v_89) ?v_114)) (or (or ?v_123 ?v_56) ?v_150)) (or (or ?v_123 ?v_16) ?v_88)) (or (or P2 ?v_26) P8)) (or (or ?v_109 ?v_127) P8)) (or (or ?v_116 ?v_13) ?v_63)) (or (or ?v_7 ?v_84) ?v_121)) (or (or ?v_119 ?v_21) P9)) (or (or ?v_131 ?v_148) ?v_44)) (or (or ?v_73 P20) P6)) (or (or ?v_43 ?v_81) ?v_98)) (or (or P6 ?v_141) ?v_107)) (or (or ?v_25 P14) ?v_82)) (or (or ?v_135 ?v_137) ?v_140)) (or (or ?v_57 ?v_40) ?v_6)) (or (or P7 ?v_72) ?v_131)) (or (or ?v_35 ?v_63) P23)) (or (or ?v_109 ?v_5) ?v_55)) (or (or ?v_122 ?v_44) ?v_57)) (or (or ?v_124 ?v_148) ?v_116)) (or (or P6 P1) ?v_93)) (or (or ?v_143 ?v_132) ?v_102)) (or (or ?v_77 P21) ?v_30)) (or (or ?v_81 ?v_42) ?v_9)) (or (or ?v_110 P8) P23)) (or (or P5 ?v_51) ?v_10)) (or (or ?v_92 ?v_62) ?v_116)) (or (or ?v_53 ?v_108) ?v_40)) (or (or ?v_115 ?v_126) ?v_37)) (or ?v_149 ?v_63)) (or (or P2 ?v_48) ?v_46)) (or (or ?v_5 ?v_48) ?v_40)) (or (or ?v_64 ?v_65) ?v_77)) (or (or ?v_81 ?v_37) ?v_133)) (or (or P8 ?v_148) ?v_64)) (or (or ?v_57 ?v_95) ?v_107)) (or (or ?v_20 ?v_86) ?v_3)) (or (or ?v_143 ?v_33) P5)) (or (or ?v_78 ?v_70) ?v_110)) (or (or ?v_71 ?v_40) ?v_99)) (or (or ?v_73 ?v_150) ?v_25)) (or (or ?v_65 ?v_114) ?v_35)) (or (or ?v_10 ?v_150) ?v_17)) (or (or ?v_88 ?v_109) ?v_123)) (or (or ?v_2 ?v_5) P26)) (or (or ?v_58 ?v_40) ?v_79)) (or (or (not P11) P22) ?v_48)) (or (or P24 P18) ?v_147)) (or (or ?v_136 ?v_10) P9)) (or (or ?v_121 ?v_88) ?v_151)) (or (or ?v_97 ?v_38) ?v_68)) (or (or ?v_9 P20) P24)) (or (or ?v_92 P29) ?v_131)) (or (or ?v_98 ?v_14) P8)) (or (or ?v_153 ?v_105) ?v_127)) (or (or ?v_46 ?v_62) ?v_109)) (or (or ?v_81 ?v_50) ?v_0)) (or (or P29 ?v_61) ?v_93)) (or (or ?v_101 ?v_111) ?v_123)) (or (or ?v_151 ?v_88) ?v_58)) (or (or ?v_70 ?v_2) ?v_141)) (or (or P17 ?v_59) ?v_27)) (or (or ?v_13 ?v_29) ?v_142)) (or (or ?v_93 P27) ?v_138)) (or (or ?v_90 P25) ?v_31)) (or (or ?v_59 ?v_91) ?v_144)) (or (or ?v_63 ?v_0) ?v_85)) (or (or ?v_9 ?v_95) ?v_45)) (or (or ?v_100 ?v_102) ?v_27)) (or (or ?v_150 ?v_136) ?v_117)) (or (or ?v_22 ?v_65) ?v_41)) (or (or ?v_22 ?v_100) ?v_32)) (or (or ?v_124 ?v_59) ?v_25)) (or (or ?v_52 P16) ?v_13)) (or (or ?v_63 P9) ?v_32)) (or ?v_152 ?v_108)) (or (or ?v_31 ?v_143) ?v_10)) (or (or ?v_10 ?v_19) ?v_131)) (or (or ?v_33 ?v_133) ?v_58)) (or (or ?v_118 ?v_70) ?v_13)) (or (or ?v_62 P16) ?v_153)) (or (or ?v_109 ?v_103) P17)) (or (or ?v_15 ?v_33) ?v_120)) (or (or ?v_60 ?v_84) ?v_50)) (or (or ?v_150 ?v_148) P4)))))))))))))))))))))))
(check-sat)
(exit)
